Minimize
  910914.2583333332 x0 + 4.4678142408333337e+06 x1 + 4.7674358525e+06 x2
   + 5.1263312937500002e+06 x3 + 3.2345815466666669e+06 x4
   + 5.0243801412500003e+06 x5 + 4.7562204487499995e+06 x6
   + 4.6088142787500005e+06 x7 + 3.7411338104166673e+06 x8
   + 3.9175950716666663e+06 x9 + 3.0451199070833335e+06 x10
   + 3.9544615241666669e+06 x11 + 4.9016461845833333e+06 x12
   + 5.1073907625000002e+06 x13 + 4.6255535762499999e+06 x14
   + 5.0535723554166676e+06 x15 + 4.865555717083334e+06 x16
   + 4.7715980350000001e+06 x17 + 4.7202426262500007e+06 x18
   + 4.561770276250001e+06 x19 + 623978.6441666667 x20
   + 4.508199788333334e+06 x21 + 4.4948597233333346e+06 x22
   + 5.1194271137500005e+06 x23 + 4.9653219733333336e+06 x24
   + 4.4189493345833337e+06 x25 + 5.2823306170833334e+06 x26
   + 4.6053618041666672e+06 x27 + 1.6224908791666669e+06 x28
   + 4.7725071062500011e+06 x29 + 4.9731286658333335e+06 x30
   + 4.6255960837500002e+06 x31 + 4.759332300416667e+06 x32
   + 4.6177873208333338e+06 x33 + 4.6092446504166666e+06 x34
   + 2.8861366825000001e+06 x35 + 4.5487497258333331e+06 x36
   + 2.5897571412500003e+06 x37 + 4.9873958120833337e+06 x38
   + 4.688137967083334e+06 x39 + 4.6474927666666675e+06 x40
   + 4.7149306812500004e+06 x41 + 2.0798150845833335e+06 x42
   + 5.1023320899999999e+06 x43 + 3.9352147175000003e+06 x44
   + 4.9080852370833345e+06 x45 + 3.9175950716666663e+06 x46
   + 3.7827597600000002e+06 x47 + 4.7412917245833324e+06 x48
   + 4.1211531325000012e+06 x49 + 4.6093956558333337e+06 x50
   + 5.1341480320833335e+06 x51 + 4.3947627487499993e+06 x52
   + 3.5128312974999999e+06 x53 + 3.6976073841666672e+06 x54
   + 4.7546724308333341e+06 x55 + 4.634568370000001e+06 x56
   + 4.9479583262499999e+06 x57 + 4.9198511400000006e+06 x58
   + 5.1215980820833342e+06 x59 + 4.9016461845833333e+06 x60
   + 5.1073907625000002e+06 x61 + 4.6255535762499999e+06 x62
   + 5.0535723554166676e+06 x63 + 4.865555717083334e+06 x64
   + 4.7715980350000001e+06 x65 + 4.7202426262500007e+06 x66
   + 4.561770276250001e+06 x67 + 4.3703714812500002e+06 x68
   + 4.152054728333333e+06 x69 + 3.3130896191666671e+06 x70
   + 4.742317114583334e+06 x71 + 4.6520470562499994e+06 x72
   + 4.6554567191666663e+06 x73 + 4.7474312841666676e+06 x74
   + 939312.7424999999 x75 + 4.7790484537499994e+06 x76
   + 1.8652986333333335e+06 x77 + 3.6467042287499998e+06 x78
   + 4.8836544079166669e+06 x79 + 5.0120536479166681e+06 x80
   + 3.619863445416667e+06 x81 + 5.1215980820833342e+06 x82
   + 4.9016461845833333e+06 x83 + 5.1073907625000002e+06 x84
   + 3.8586746783333328e+06 x85 + 5.0698567600000016e+06 x86
   + 4.9265580879166676e+06 x87 + 4.7511166724999994e+06 x88
   + 4.6255749495833339e+06 x89 + 4.538388524166666e+06 x90
   + 4.1376008670833334e+06 x91 + 4.6093956558333337e+06 x92
   + 4.9875286291666664e+06 x93 + 4.0989100195833333e+06 x94
   + 4.1871205533333328e+06 x95 + 5.1784619575000014e+06 x96
   + 3.6976073841666672e+06 x97 + 4.7546724308333341e+06 x98
   + 3.7584509916666672e+06 x99 + 3.7392928912500003e+06 x100
   + 4.6267682341666669e+06 x101 + 3.8443051825000001e+06 x102
   + 4.7431053612500001e+06 x103
Subject To
 c_0: x14 + x62 + x85 >= 1
 c_1: x27 + x54 + x97 >= 1
 c_2: x33 + x39 + x72 >= 1
 c_3: x31 + x41 + x74 >= 1
 c_4: x10 + x47 + x89 >= 1
 c_5: x27 + x55 + x98 >= 1
 c_6: x26 + x54 + x97 >= 1
 c_7: x7 + x48 + x79 >= 1
 c_8: x24 + x59 + x82 >= 1
 c_9: x30 + x57 + x95 >= 1
 c_10: x22 + x43 + x80 >= 1
 c_11: x23 + x59 + x82 >= 1
 c_12: x34 + x40 + x73 >= 1
 c_13: x12 + x60 + x83 >= 1
 c_14: x25 + x58 + x94 >= 1
 c_15: x12 + x60 + x83 >= 1
 c_16: x31 + x41 + x74 >= 1
 c_17: x18 + x66 + x103 >= 1
 c_18: x24 + x58 + x94 >= 1
 c_19: x3 + x45 + x87 >= 1
 c_20: x16 + x64 + x87 >= 1
 c_21: x21 + x48 + x99 >= 1
 c_22: x15 + x63 + x86 >= 1
 c_23: x23 + x43 + x81 >= 1
 c_24: x29 + x56 + x94 >= 1
 c_25: x16 + x64 + x87 >= 1
 c_26: x22 + x43 + x80 >= 1
 c_27: x15 + x63 + x86 >= 1
 c_28: x32 + x41 + x73 >= 1
 c_29: x20 + x68 + x91 >= 1
 c_30: x19 + x67 + x102 >= 1
 c_31: x8 + x68 + x90 >= 1
 c_32: x10 + x47 + x101 >= 1
 c_33: x29 + x56 + x95 >= 1
 c_34: x29 + x56 + x99 >= 1
 c_35: x29 + x56 + x99 >= 1
 c_36: x26 + x38 + x71 >= 1
 c_37: x22 + x43 + x80 >= 1
 c_38: x26 + x38 + x71 >= 1
 c_39: x34 + x40 + x73 >= 1
 c_40: x34 + x40 + x73 >= 1
 c_41: x34 + x40 + x72 >= 1
 c_42: x17 + x65 + x88 >= 1
 c_43: x11 + x45 + x101 >= 1
 c_44: x13 + x61 + x84 >= 1
 c_45: x17 + x65 + x103 >= 1
 c_46: x32 + x38 + x71 >= 1
 c_47: x18 + x66 + x103 >= 1
 c_48: x23 + x59 + x82 >= 1
 c_49: x30 + x51 + x96 >= 1
 c_50: x19 + x67 + x102 >= 1
 c_51: x14 + x62 + x86 >= 1
 c_52: x5 + x51 + x93 >= 1
 c_53: x25 + x57 + x93 >= 1
 c_54: x16 + x64 + x88 >= 1
 c_55: x27 + x55 + x98 >= 1
 c_56: x1 + x35 + x78 >= 1
 c_57: x32 + x41 + x74 >= 1
 c_58: x34 + x41 + x73 >= 1
 c_59: x15 + x63 + x87 >= 1
 c_60: x29 + x56 + x99 >= 1
 c_61: x18 + x66 + x102 >= 1
 c_62: x30 + x52 + x96 >= 1
 c_63: x8 + x68 + x90 >= 1
 c_64: x9 + x46 + x90 >= 1
 c_65: x14 + x62 + x85 >= 1
 c_66: x30 + x57 + x95 >= 1
 c_67: x23 + x59 + x82 >= 1
 c_68: x28 + x56 + x99 >= 1
 c_69: x22 + x43 + x80 >= 1
 c_70: x32 + x39 + x71 >= 1
 c_71: x17 + x65 + x88 >= 1
 c_72: x24 + x58 + x94 >= 1
 c_73: x1 + x35 + x78 >= 1
 c_74: x8 + x68 + x79 >= 1
 c_75: x2 + x44 + x76 >= 1
 c_76: x13 + x61 + x84 >= 1
 c_77: x16 + x64 + x88 >= 1
 c_78: x7 + x50 + x92 >= 1
 c_79: x7 + x50 + x92 >= 1
 c_80: x7 + x50 + x92 >= 1
 c_81: x28 + x55 + x98 >= 1
 c_82: x33 + x39 + x72 >= 1
 c_83: x33 + x40 + x72 >= 1
 c_84: x33 + x39 + x72 >= 1
 c_85: x9 + x46 + x90 >= 1
 c_86: x10 + x47 + x89 >= 1
 c_87: x30 + x51 + x96 >= 1
 c_88: x15 + x63 + x86 >= 1
 c_89: x15 + x63 + x86 >= 1
 c_90: x21 + x49 + x100 >= 1
 c_91: x14 + x62 + x85 >= 1
 c_92: x31 + x52 + x96 >= 1
 c_93: x29 + x57 + x95 >= 1
 c_94: x25 + x57 + x93 >= 1
 c_95: x16 + x64 + x87 >= 1
 c_96: x21 + x49 + x100 >= 1
 c_97: x6 + x48 + x91 >= 1
 c_98: x25 + x58 + x94 >= 1
 c_99: x11 + x45 + x80 >= 1
 c_100: x12 + x60 + x83 >= 1
 c_101: x10 + x47 + x89 >= 1
 c_102: x3 + x53 + x69 >= 1
 c_103: x12 + x60 + x83 >= 1
 c_104: x11 + x45 + x101 >= 1
 c_105: x31 + x52 + x96 >= 1
 c_106: x16 + x64 + x103 >= 1
 c_107: x24 + x58 + x81 >= 1
 c_108: x5 + x51 + x93 >= 1
 c_109: x19 + x67 + x101 >= 1
 c_110: x6 + x50 + x92 >= 1
 c_111: x21 + x49 + x100 >= 1
 c_112: x5 + x51 + x93 >= 1
 c_113: x18 + x66 + x77 >= 1
 c_114: x26 + x54 + x97 >= 1
 c_115: x32 + x39 + x71 >= 1
 c_116: x33 + x38 + x70 >= 1
 c_117: x9 + x46 + x89 >= 1
 c_118: x26 + x54 + x97 >= 1
 c_119: x17 + x65 + x88 >= 1
 c_120: x6 + x50 + x92 >= 1
 c_121: x17 + x65 + x88 >= 1
 c_122: x1 + x36 + x78 >= 1
 c_123: x21 + x49 + x100 >= 1
 c_124: x12 + x60 + x83 >= 1
 c_125: x5 + x37 + x79 >= 1
 c_126: x5 + x42 + x74 >= 1
 c_127: x2 + x44 + x76 >= 1
 c_128: x22 + x49 + x91 >= 1
 c_129: x7 + x48 + x79 >= 1
 c_130: x25 + x52 + x70 >= 1
 c_131: x8 + x68 + x90 >= 1
 c_132: x14 + x62 + x85 >= 1
 c_133: x9 + x46 + x89 >= 1
 c_134: x4 + x53 + x69 >= 1
 c_135: x11 + x45 + x80 >= 1
 c_136: x4 + x54 + x97 >= 1
 c_137: x3 + x53 + x69 >= 1
 c_138: x21 + x48 + x100 >= 1
 c_139: x23 + x59 + x82 >= 1
 c_140: x23 + x43 + x81 >= 1
 c_141: x18 + x66 + x103 >= 1
 c_142: x26 + x38 + x70 >= 1
 c_143: x3 + x36 + x76 >= 1
 c_144: x13 + x61 + x84 >= 1
 c_145: x13 + x61 + x84 >= 1
 c_146: x18 + x66 + x102 >= 1
 c_147: x15 + x63 + x86 >= 1
 c_148: x30 + x57 + x95 >= 1
 c_149: x7 + x37 + x79 >= 1
 c_150: x2 + x36 + x77 >= 1
 c_151: x19 + x67 + x101 >= 1
 c_152: x19 + x67 + x102 >= 1
 c_153: x11 + x47 + x101 >= 1
 c_154: x13 + x61 + x84 >= 1
 c_155: x19 + x67 + x91 >= 1
 c_156: x27 + x55 + x98 >= 1
 c_157: x27 + x55 + x98 >= 1
 c_158: x31 + x52 + x96 >= 1
 c_159: x1 + x36 + x75 >= 1
 c_160: x8 + x68 + x90 >= 1
 c_161: x6 + x48 + x91 >= 1
 c_162: x17 + x65 + x103 >= 1
 c_163: x24 + x58 + x81 >= 1
 c_164: x24 + x59 + x82 >= 1
 c_165: x6 + x37 + x79 >= 1
 c_166: x5 + x51 + x93 >= 1
 c_167: x2 + x44 + x76 >= 1
 c_168: x22 + x49 + x91 >= 1
 c_169: x2 + x44 + x76 >= 1
 c_170: x6 + x50 + x92 >= 1
 c_171: x27 + x55 + x98 >= 1
 c_172: x9 + x46 + x89 >= 1
 c_173: x1 + x35 + x78 >= 1
 c_174: x0 + x36 + x69 >= 1
 c_175: x4 + x42 + x74 >= 1
 c_176: x3 + x45 + x87 >= 1
Bounds
 x0 <= 1
 x1 <= 1
 x2 <= 1
 x3 <= 1
 x4 <= 1
 x5 <= 1
 x6 <= 1
 x7 <= 1
 x8 <= 1
 x9 <= 1
 x10 <= 1
 x11 <= 1
 x12 <= 1
 x13 <= 1
 x14 <= 1
 x15 <= 1
 x16 <= 1
 x17 <= 1
 x18 <= 1
 x19 <= 1
 x20 <= 1
 x21 <= 1
 x22 <= 1
 x23 <= 1
 x24 <= 1
 x25 <= 1
 x26 <= 1
 x27 <= 1
 x28 <= 1
 x29 <= 1
 x30 <= 1
 x31 <= 1
 x32 <= 1
 x33 <= 1
 x34 <= 1
 x35 <= 1
 x36 <= 1
 x37 <= 1
 x38 <= 1
 x39 <= 1
 x40 <= 1
 x41 <= 1
 x42 <= 1
 x43 <= 1
 x44 <= 1
 x45 <= 1
 x46 <= 1
 x47 <= 1
 x48 <= 1
 x49 <= 1
 x50 <= 1
 x51 <= 1
 x52 <= 1
 x53 <= 1
 x54 <= 1
 x55 <= 1
 x56 <= 1
 x57 <= 1
 x58 <= 1
 x59 <= 1
 x60 <= 1
 x61 <= 1
 x62 <= 1
 x63 <= 1
 x64 <= 1
 x65 <= 1
 x66 <= 1
 x67 <= 1
 x68 <= 1
 x69 <= 1
 x70 <= 1
 x71 <= 1
 x72 <= 1
 x73 <= 1
 x74 <= 1
 x75 <= 1
 x76 <= 1
 x77 <= 1
 x78 <= 1
 x79 <= 1
 x80 <= 1
 x81 <= 1
 x82 <= 1
 x83 <= 1
 x84 <= 1
 x85 <= 1
 x86 <= 1
 x87 <= 1
 x88 <= 1
 x89 <= 1
 x90 <= 1
 x91 <= 1
 x92 <= 1
 x93 <= 1
 x94 <= 1
 x95 <= 1
 x96 <= 1
 x97 <= 1
 x98 <= 1
 x99 <= 1
 x100 <= 1
 x101 <= 1
 x102 <= 1
 x103 <= 1
Generals
 x0 x1 x2 x3 x4 x5 x6 x7 x8 x9 x10 x11 x12 x13 x14 x15 x16 x17 x18 x19 x20
 x21 x22 x23 x24 x25 x26 x27 x28 x29 x30 x31 x32 x33 x34 x35 x36 x37 x38
 x39 x40 x41 x42 x43 x44 x45 x46 x47 x48 x49 x50 x51 x52 x53 x54 x55 x56
 x57 x58 x59 x60 x61 x62 x63 x64 x65 x66 x67 x68 x69 x70 x71 x72 x73 x74
 x75 x76 x77 x78 x79 x80 x81 x82 x83 x84 x85 x86 x87 x88 x89 x90 x91 x92
 x93 x94 x95 x96 x97 x98 x99 x100 x101 x102 x103
End
